/* Objective function */
max: +C41;

/* Constraints */
R1: +C1 >= 0;
R2: +C2 >= 0;
R3: +C3 >= 0;
R4: +C4 >= 0;
R5: +C5 >= 0;
R6: +C6 >= 0;
R7: +C7 >= 0;
R8: +C8 >= 0;
R9: +C9 >= 0;
R10: +C10 >= 0;
R11: +C11 >= 0;
R12: +C12 >= 0;
R13: +C13 >= 0;
R14: +C14 >= 0;
R15: +C15 >= 0;
R16: +C16 >= 0;
R17: +C17 >= 0;
R18: +C18 >= 0;
R19: +C19 >= 0;
R20: +C20 >= 0;
R21: +C21 >= 0;
R22: +C22 >= 0;
R23: +C23 >= 0;
R24: +C24 >= 0;
R25: +C25 >= 0;
R26: +C26 >= 0;
R27: +C27 >= 0;
R28: +C28 >= 0;
R29: +C29 >= 0;
R30: +C30 >= 0;
R31: +C31 >= 0;
R32: +C32 >= 0;
R33: +C33 >= 0;
R34: +C34 >= 0;
R35: +C35 >= 0;
R36: +C36 >= 0;
R37: +C37 >= 0;
R38: +C38 >= 0;
R39: +C39 >= 0;
+C1 -C41 >= 0;
+C2 -C41 >= 0;
+C3 -C41 >= 0;
+C4 -C41 >= 0;
+C5 -C41 >= 0;
+C6 -C41 >= 0;
+C7 -C41 >= 0;
+C8 -C41 >= 0;
+C9 -C41 >= 0;
+C10 -C41 >= 0;
+C11 -C41 >= 0;
+C12 -C41 >= 0;
+C13 -C41 >= 0;
+C14 -C41 >= 0;
+C15 -C41 >= 0;
+C16 -C41 >= 0;
+C17 -C41 >= 0;
+C18 -C41 >= 0;
+C19 -C41 >= 0;
+C20 -C41 >= 0;
+C21 -C41 >= 0;
+C22 -C41 >= 0;
+C23 -C41 >= 0;
+C24 -C41 >= 0;
+C25 -C41 >= 0;
+C26 -C41 >= 0;
+C27 -C41 >= 0;
+C28 -C41 >= 0;
+C29 -C41 >= 0;
+C30 -C41 >= 0;
+C31 -C41 >= 0;
+C32 -C41 >= 0;
+C33 -C41 >= 0;
+C34 -C41 >= 0;
+C35 -C41 >= 0;
+C36 -C41 >= 0;
+C37 -C41 >= 0;
+C38 -C41 >= 0;
+C39 -C41 >= 0;
+C40 -C41 >= 0;
+0.02173913 C1 +0.026086957 C2 +0.030434783 C3 +0.02826087 C4 +0.023913043 C5 +0.026086957 C6 +0.02173913 C7
 +0.02826087 C8 +0.030434783 C9 +0.02173913 C10 +0.026086957 C11 +0.030434783 C12 +0.02826087 C13 +0.023913043 C14
 +0.026086957 C15 +0.02173913 C16 +0.02826087 C17 +0.030434783 C18 +0.02173913 C19 +0.026086957 C20 +0.030434783 C21
 +0.02826087 C22 +0.023913043 C23 +0.026086957 C24 +0.02173913 C25 +0.02826087 C26 +0.030434783 C27 +0.02173913 C28
 +0.026086957 C29 +0.030434783 C30 +0.02826087 C31 +0.023913043 C32 +0.026086957 C33 +0.02173913 C34
 +0.030434783 C35 +0.02173913 C36 +0.027173913 C37 +0.02173913 C38 +0.026086957 C39 +0.02173913 C40 <= 40;
